% demand
num_movements = 56;
loading_factor = [1850, 1950, 1400, 1300, 1600, 1950, 950, 800, 1550, 1500, 1850, 1400, 1700, 1150, 1000, 1150, 1850, 1200, 2000, 1500, 1150, 1750, 1250, 1700, 1050, 1150, 1200, 1600, 1950, 850, 1600, 950, 1650, 900, 900, 1900, 1050, 1550, 1250, 1350, 1900, 1150, 1750, 1000, 1400, 1150, 1700, 1350, 900, 1250, 1300, 1800, 1350, 1550, 1650, 1200];
pickup_time = [0, 0, 0, 0, 0, 0, 0, 1, 1, 1, 1, 1, 2, 2, 2, 2, 3, 4, 4, 4, 4, 4, 4, 4, 6, 7, 7, 7, 8, 8, 8, 8, 8, 8, 9, 9, 9, 10, 10, 10, 10, 10, 10, 10, 11, 11, 11, 12, 12, 12, 12, 13, 13, 13, 13, 13];
delivery_time = [4, 1, 1, 1, 1, 2, 1, 4, 2, 3, 4, 2, 4, 4, 3, 4, 4, 8, 5, 9, 7, 6, 7, 5, 8, 8, 8, 9, 9, 9, 9, 9, 9, 9, 10, 10, 11, 11, 11, 11, 11, 11, 11, 11, 13, 13, 13, 13, 14, 14, 14, 14, 14, 14, 14, 14];

% transporter definition
total_capacity = 11000;
num_decks = 4;
capacity = [3000, 3000, 1000, 4000];

% ways out of decks
num_ways_out = 2;
paths_out = array3d(decks, ways_out, decks, [
% ways out of deck d1
2, 4, 0, 0, 3, 4, 0, 0, 

% ways out of deck d2
4, 0, 0, 0, 0, 0, 0, 0,	

% ways out of deck d3
4, 0, 0, 0, 0, 0, 0, 0,	

% ways out of deck d4
0, 0, 0, 0,	0, 0, 0, 0,	

]);

